c 1 ASH_INTERNAL_GLOB
c 2 NOMMU
c 3 SH_IS_ASH
c 4 BASH_IS_ASH
c 5 SHELL_ASH
c 6 ASH_JOB_CONTROL
c 7 ASH
c 8 ASH_SLEEP
c 9 _aux_1
c 10 _aux_2
c 11 _aux_3
c 12 _aux_4
c 13 _aux_5
c 14 _aux_6
c 15 _aux_7
p cnf 15 27
15 0
3 4 5 7 -9 0
-3 9 0
-4 9 0
-5 9 0
-7 9 0
-2 -10 0
5 -10 0
9 -10 0
2 -5 -9 10 0
-6 10 -11 0
6 11 0
-10 11 0
3 4 -12 0
-3 12 0
-4 12 0
-2 -13 0
12 -13 0
5 -13 0
2 -12 -5 13 0
-1 13 -14 0
1 14 0
-13 14 0
14 -15 0
11 -15 0
-8 -15 0
-14 -11 8 15 0
